c Result of efficient AIG-to-CNF conversion using package CNF
p cnf 541 1941
2 477 478 -35 0
2 477 478 -3 0
-2 -477 0
-2 -478 0
-2 3 35 0
3 -4 30 32 33 0
-3 -33 0
-3 4 0
-3 -32 0
-3 -30 0
4 5 7 -8 29 0
-4 -29 0
-4 -5 0
-4 8 0
-4 -7 0
-5 481 484 485 6 0
5 -6 0
5 -485 0
5 -481 0
5 -484 0
-6 486 487 488 489 0
6 -489 0
6 -488 0
6 -486 0
6 -487 0
-7 492 493 494 495 0
7 -495 0
7 -494 0
7 -492 0
7 -493 0
8 507 -9 25 0
-8 -25 0
-8 9 0
-8 -507 0
-9 508 10 0
9 -508 0
9 -10 0
-10 11 13 0
10 -11 0
10 -13 0
-11 537 12 0
11 -537 0
11 -12 0
-12 477 538 539 540 0
12 -540 0
12 -539 0
12 -477 0
12 -538 0
-13 536 14 0
13 -536 0
13 -14 0
-14 15 21 23 24 0
14 -24 0
14 -15 0
14 -23 0
14 -21 0
-15 533 534 16 18 0
15 -533 0
15 -18 0
15 -16 0
15 -534 0
-16 525 531 532 17 0
16 -17 0
16 -532 0
16 -525 0
16 -531 0
-17 529 530 535 0
17 -529 0
17 -535 0
17 -530 0
-18 526 527 528 19 0
18 -19 0
18 -528 0
18 -526 0
18 -527 0
-19 521 522 20 0
19 -20 0
19 -522 0
19 -521 0
-20 517 518 523 524 0
20 -524 0
20 -523 0
20 -517 0
20 -518 0
-21 515 519 520 22 0
21 -22 0
21 -520 0
21 -515 0
21 -519 0
-22 513 514 0
22 -513 0
22 -514 0
-23 509 516 0
23 -509 0
23 -516 0
-24 510 511 512 0
24 -510 0
24 -512 0
24 -511 0
-25 508 26 0
25 -508 0
25 -26 0
-26 13 27 0
26 -13 0
26 -27 0
-27 537 28 0
27 -537 0
27 -28 0
-28 509 538 539 540 0
28 -540 0
28 -539 0
28 -509 0
28 -538 0
-29 496 497 498 499 0
29 -499 0
29 -498 0
29 -496 0
29 -497 0
-30 502 503 31 0
30 -31 0
30 -503 0
30 -502 0
-31 500 501 504 0
31 -500 0
31 -504 0
31 -501 0
-32 479 480 0
32 -479 0
32 -480 0
-33 490 491 34 0
33 -34 0
33 -491 0
33 -490 0
-34 482 483 505 506 0
34 -506 0
34 -505 0
34 -482 0
34 -483 0
35 32 -36 0
35 481 32 -89 0
-35 -32 0
-35 -481 36 0
-35 36 89 0
-36 -43 81 0
-36 44 81 0
-36 -37 81 0
36 -81 0
36 37 43 -44 0
-37 38 40 42 0
37 -38 0
37 -40 0
37 -42 0
-38 502 503 39 0
38 -39 0
38 -503 0
38 -502 0
-39 490 491 7 29 0
39 -490 0
39 -29 0
39 -7 0
39 -491 0
-40 486 41 0
40 -486 0
40 -41 0
-41 482 483 484 485 0
41 -485 0
41 -484 0
41 -482 0
41 -483 0
-42 487 488 489 505 0
42 -505 0
42 -489 0
42 -487 0
42 -488 0
-43 481 506 31 0
43 -31 0
43 -506 0
43 -481 0
44 45 -63 0
-44 -45 0
-44 63 0
-45 507 46 0
-45 -507 58 0
45 -507 -58 0
45 507 -46 0
-46 508 47 0
-46 -508 53 0
46 -508 -53 0
46 508 -47 0
-47 13 48 0
47 -13 0
47 -48 0
-48 537 49 0
48 -537 0
48 -49 0
-49 538 50 0
49 -538 0
49 -50 0
-50 539 51 0
-50 -539 52 0
50 -539 -52 0
50 539 -51 0
-51 512 540 0
-51 511 -540 0
51 -512 540 0
51 -511 -540 0
-52 510 540 0
-52 509 -540 0
52 -510 540 0
52 -509 -540 0
-53 13 54 0
53 -13 0
53 -54 0
-54 537 55 0
54 -537 0
54 -55 0
-55 538 56 0
55 -538 0
55 -56 0
-56 539 57 0
-56 509 -539 540 0
56 539 -57 0
56 -539 -540 0
56 -509 -539 0
-57 511 540 0
-57 510 -540 0
57 -511 540 0
57 -510 -540 0
-58 -508 26 0
-58 508 59 0
58 508 -59 0
58 -508 -26 0
-59 13 60 0
59 -13 0
59 -60 0
-60 537 61 0
60 -537 0
60 -61 0
-61 538 62 0
61 -538 0
61 -62 0
-62 509 539 -540 0
-62 510 539 540 0
62 -539 0
62 -510 540 0
62 -509 -540 0
-63 507 64 0
-63 -507 76 0
63 -507 -76 0
63 507 -64 0
-64 508 65 0
-64 -508 71 0
64 -508 -71 0
64 508 -65 0
-65 13 66 0
65 -13 0
65 -66 0
-66 537 67 0
66 -537 0
66 -67 0
-67 538 68 0
67 -538 0
67 -68 0
-68 539 69 0
-68 -539 70 0
68 -539 -70 0
68 539 -69 0
-69 480 540 0
-69 479 -540 0
69 -480 540 0
69 -479 -540 0
-70 478 540 0
-70 477 -540 0
70 -478 540 0
70 -477 -540 0
-71 13 72 0
71 -13 0
71 -72 0
-72 537 73 0
72 -537 0
72 -73 0
-73 538 74 0
73 -538 0
73 -74 0
-74 539 75 0
-74 477 -539 540 0
74 539 -75 0
74 -539 -540 0
74 -477 -539 0
-75 479 540 0
-75 478 -540 0
75 -479 540 0
75 -478 -540 0
-76 -508 10 0
-76 508 77 0
76 508 -77 0
76 -508 -10 0
-77 13 78 0
77 -13 0
77 -78 0
-78 537 79 0
78 -537 0
78 -79 0
-79 538 80 0
79 -538 0
79 -80 0
-80 477 539 -540 0
-80 478 539 540 0
80 -539 0
80 -478 540 0
80 -477 -540 0
81 -82 85 0
81 -34 85 0
81 -84 85 0
-81 -85 0
-81 34 82 84 0
-82 -507 9 0
-82 507 83 0
82 507 -83 0
82 -507 -9 0
-83 508 71 0
-83 -508 77 0
83 -508 -77 0
83 508 -71 0
-84 5 30 39 0
84 -5 0
84 -30 0
84 -39 0
-85 505 43 86 87 0
85 -505 0
85 -87 0
85 -86 0
85 -43 0
-86 6 38 41 0
86 -6 0
86 -38 0
86 -41 0
-87 -507 25 0
-87 507 88 0
87 507 -88 0
87 -507 -25 0
-88 508 53 0
-88 -508 59 0
88 -508 -59 0
88 508 -53 0
-89 -86 469 0
-89 -90 469 0
-89 91 469 0
89 -469 0
89 90 86 -91 0
-90 500 501 0
90 -500 0
90 -501 0
-91 -504 455 0
-91 504 92 414 0
91 504 -92 0
91 -504 -455 0
91 504 -414 0
92 250 -323 0
92 -93 156 -323 0
-92 323 0
-92 -156 -250 0
-92 93 -250 0
-93 506 94 0
-93 -506 141 0
93 -506 -141 0
93 506 -94 0
-94 507 95 0
-94 -507 126 0
94 -507 -126 0
94 507 -95 0
-95 508 96 0
-95 -508 111 0
95 -508 -111 0
95 508 -96 0
-96 536 14 97 0
-96 -536 14 78 0
96 -14 0
96 -536 -78 0
96 536 -97 0
-97 537 98 0
-97 -537 105 0
97 -537 -105 0
97 537 -98 0
-98 538 99 0
-98 -538 102 0
98 -538 -102 0
98 538 -99 0
-99 539 100 0
-99 -539 101 0
99 -539 -101 0
99 539 -100 0
-100 494 540 0
-100 493 -540 0
100 -494 540 0
100 -493 -540 0
-101 492 540 0
-101 491 -540 0
101 -492 540 0
101 -491 -540 0
-102 539 103 0
-102 -539 104 0
102 -539 -104 0
102 539 -103 0
-103 490 540 0
-103 489 -540 0
103 -490 540 0
103 -489 -540 0
-104 488 540 0
-104 487 -540 0
104 -488 540 0
104 -487 -540 0
-105 538 106 0
-105 -538 109 0
105 -538 -109 0
105 538 -106 0
-106 539 107 0
-106 -539 108 0
106 -539 -108 0
106 539 -107 0
-107 486 540 0
-107 485 -540 0
107 -486 540 0
107 -485 -540 0
-108 484 540 0
-108 483 -540 0
108 -484 540 0
108 -483 -540 0
-109 -539 69 0
-109 539 110 0
109 539 -110 0
109 -539 -69 0
-110 482 540 0
-110 481 -540 0
110 -482 540 0
110 -481 -540 0
-111 536 14 112 0
-111 -536 11 14 0
111 -14 0
111 -536 -11 0
111 536 -112 0
-112 537 113 0
-112 -537 120 0
112 -537 -120 0
112 537 -113 0
-113 538 114 0
-113 -538 117 0
113 -538 -117 0
113 538 -114 0
-114 539 115 0
-114 -539 116 0
114 -539 -116 0
114 539 -115 0
-115 493 540 0
-115 492 -540 0
115 -493 540 0
115 -492 -540 0
-116 491 540 0
-116 490 -540 0
116 -491 540 0
116 -490 -540 0
-117 539 118 0
-117 -539 119 0
117 -539 -119 0
117 539 -118 0
-118 489 540 0
-118 488 -540 0
118 -489 540 0
118 -488 -540 0
-119 487 540 0
-119 486 -540 0
119 -487 540 0
119 -486 -540 0
-120 538 121 0
-120 -538 124 0
120 -538 -124 0
120 538 -121 0
-121 539 122 0
-121 -539 123 0
121 -539 -123 0
121 539 -122 0
-122 485 540 0
-122 484 -540 0
122 -485 540 0
122 -484 -540 0
-123 483 540 0
-123 482 -540 0
123 -483 540 0
123 -482 -540 0
-124 -539 75 0
-124 539 125 0
124 539 -125 0
124 -539 -75 0
-125 481 540 0
-125 480 -540 0
125 -481 540 0
125 -480 -540 0
-126 508 127 0
-126 -508 134 0
126 -508 -134 0
126 508 -127 0
-127 13 128 0
127 -13 0
127 -128 0
-128 537 129 0
-128 -537 132 0
128 -537 -132 0
128 537 -129 0
-129 538 130 0
-129 -538 131 0
129 -538 -131 0
129 538 -130 0
-130 539 101 0
-130 -539 103 0
130 -539 -103 0
130 539 -101 0
-131 539 104 0
-131 -539 107 0
131 -539 -107 0
131 539 -104 0
-132 -538 68 0
-132 538 133 0
132 538 -133 0
132 -538 -68 0
-133 539 108 0
-133 -539 110 0
133 -539 -110 0
133 539 -108 0
-134 13 135 0
134 -13 0
134 -135 0
-135 537 136 0
-135 -537 139 0
135 -537 -139 0
135 537 -136 0
-136 538 137 0
-136 -538 138 0
136 -538 -138 0
136 538 -137 0
-137 539 116 0
-137 -539 118 0
137 -539 -118 0
137 539 -116 0
-138 539 119 0
-138 -539 122 0
138 -539 -122 0
138 539 -119 0
-139 -538 74 0
-139 538 140 0
139 538 -140 0
139 -538 -74 0
-140 539 123 0
-140 -539 125 0
140 -539 -125 0
140 539 -123 0
-141 507 142 0
-141 -507 151 0
141 -507 -151 0
141 507 -142 0
-142 508 143 0
-142 -508 13 147 0
142 -508 -147 0
142 508 -143 0
142 -508 -13 0
-143 13 144 0
143 -13 0
143 -144 0
-144 537 145 0
-144 -537 146 0
144 -537 -146 0
144 537 -145 0
-145 538 102 0
-145 -538 106 0
145 -538 -106 0
145 538 -102 0
-146 -538 80 0
-146 538 109 0
146 538 -109 0
146 -538 -80 0
-147 537 148 0
-147 -537 149 0
147 -537 -149 0
147 537 -148 0
-148 538 117 0
-148 -538 121 0
148 -538 -121 0
148 538 -117 0
-149 -538 150 0
-149 538 124 0
149 538 -124 0
149 -538 -150 0
-150 477 539 540 0
150 -477 0
150 -540 0
150 -539 0
-151 -508 13 154 0
-151 508 13 152 0
151 -13 0
151 -508 -154 0
151 508 -152 0
-152 -537 67 0
-152 537 153 0
152 537 -153 0
152 -537 -67 0
-153 538 131 0
-153 -538 133 0
153 -538 -133 0
153 538 -131 0
-154 -537 73 0
-154 537 155 0
154 537 -155 0
154 -537 -73 0
-155 538 138 0
-155 -538 140 0
155 -538 -140 0
155 538 -138 0
156 505 -157 0
156 -505 -226 0
-156 -505 226 0
-156 505 157 0
157 506 -174 0
157 -506 -158 0
-157 -506 158 0
-157 506 174 0
-158 507 159 0
-158 -507 171 0
158 -507 -171 0
158 507 -159 0
-159 508 160 0
-159 -508 165 0
159 -508 -165 0
159 508 -160 0
-160 536 14 0
-160 14 161 0
160 -14 0
160 -536 -161 0
-161 537 162 0
161 -537 0
161 -162 0
-162 -538 62 0
-162 538 163 0
162 538 -163 0
162 -538 -62 0
-163 -539 51 0
-163 539 164 0
163 539 -164 0
163 -539 -51 0
-164 514 540 0
-164 513 -540 0
164 -514 540 0
164 -513 -540 0
-165 536 14 0
-165 14 166 0
165 -14 0
165 -536 -166 0
-166 537 167 0
166 -537 0
166 -167 0
-167 -538 168 0
-167 538 169 0
167 538 -169 0
167 -538 -168 0
-168 509 539 540 0
168 -509 0
168 -540 0
168 -539 0
-169 -539 57 0
-169 539 170 0
169 539 -170 0
169 -539 -57 0
-170 513 540 0
-170 512 -540 0
170 -513 540 0
170 -512 -540 0
-171 508 172 0
-171 -508 173 0
171 -508 -173 0
171 508 -172 0
-172 536 14 0
-172 14 48 0
172 -14 0
172 -536 -48 0
-173 536 14 0
-173 14 54 0
173 -14 0
173 -536 -54 0
-174 -507 217 0
-174 507 175 0
174 507 -175 0
174 -507 -217 0
175 -508 -176 0
175 508 -14 0
175 508 -197 0
-175 -508 176 0
-175 508 14 197 0
-176 -536 14 192 0
-176 536 14 177 0
176 -14 0
176 -536 -192 0
176 536 -177 0
177 537 -178 0
177 -537 -185 0
-177 -537 185 0
-177 537 178 0
178 538 -182 0
178 -538 -179 0
-178 -538 179 0
-178 538 182 0
-179 539 180 0
-179 -539 181 0
179 -539 -181 0
179 539 -180 0
-180 529 540 0
-180 528 -540 0
180 -529 540 0
180 -528 -540 0
-181 527 540 0
-181 526 -540 0
181 -527 540 0
181 -526 -540 0
-182 539 183 0
-182 -539 184 0
182 -539 -184 0
182 539 -183 0
-183 533 540 0
-183 532 -540 0
183 -533 540 0
183 -532 -540 0
-184 531 540 0
-184 530 -540 0
184 -531 540 0
184 -530 -540 0
-185 538 186 0
-185 -538 189 0
185 -538 -189 0
185 538 -186 0
-186 539 187 0
-186 -539 188 0
186 -539 -188 0
186 539 -187 0
-187 525 540 0
-187 524 -540 0
187 -525 540 0
187 -524 -540 0
-188 523 540 0
-188 522 -540 0
188 -523 540 0
188 -522 -540 0
-189 539 190 0
-189 -539 191 0
189 -539 -191 0
189 539 -190 0
-190 521 540 0
-190 520 -540 0
190 -521 540 0
190 -520 -540 0
-191 519 540 0
-191 518 -540 0
191 -519 540 0
191 -518 -540 0
-192 -537 28 0
-192 537 193 0
192 537 -193 0
192 -537 -28 0
-193 -538 169 0
-193 538 194 0
193 538 -194 0
193 -538 -169 0
-194 539 195 0
-194 -539 196 0
194 -539 -196 0
194 539 -195 0
-195 517 540 0
-195 516 -540 0
195 -517 540 0
195 -516 -540 0
-196 515 540 0
-196 514 -540 0
196 -515 540 0
196 -514 -540 0
-197 -536 212 0
-197 536 198 205 0
197 536 -198 0
197 -536 -212 0
197 536 -205 0
198 537 -538 -202 0
198 537 538 -199 0
-198 -537 0
-198 -538 202 0
-198 538 199 0
-199 539 200 0
-199 -539 201 0
199 -539 -201 0
199 539 -200 0
-200 534 540 0
-200 533 -540 0
200 -534 540 0
200 -533 -540 0
-201 532 540 0
-201 531 -540 0
201 -532 540 0
201 -531 -540 0
-202 539 203 0
-202 -539 204 0
202 -539 -204 0
202 539 -203 0
-203 530 540 0
-203 529 -540 0
203 -530 540 0
203 -529 -540 0
-204 528 540 0
-204 527 -540 0
204 -528 540 0
204 -527 -540 0
205 -537 -538 -209 0
205 -537 538 -206 0
-205 537 0
-205 -538 209 0
-205 538 206 0
-206 539 207 0
-206 -539 208 0
206 -539 -208 0
206 539 -207 0
-207 526 540 0
-207 525 -540 0
207 -526 540 0
207 -525 -540 0
-208 524 540 0
-208 523 -540 0
208 -524 540 0
208 -523 -540 0
-209 539 210 0
-209 -539 211 0
209 -539 -211 0
209 539 -210 0
-210 522 540 0
-210 521 -540 0
210 -522 540 0
210 -521 -540 0
-211 520 540 0
-211 519 -540 0
211 -520 540 0
211 -519 -540 0
-212 -537 61 0
-212 537 213 0
212 537 -213 0
212 -537 -61 0
-213 -538 163 0
-213 538 214 0
213 538 -214 0
213 -538 -163 0
-214 539 215 0
-214 -539 216 0
214 -539 -216 0
214 539 -215 0
-215 518 540 0
-215 517 -540 0
215 -518 540 0
215 -517 -540 0
-216 516 540 0
-216 515 -540 0
216 -516 540 0
216 -515 -540 0
-217 508 218 0
-217 -508 222 0
217 -508 -222 0
217 508 -218 0
-218 536 14 0
-218 14 219 0
218 -14 0
218 -536 -219 0
-219 537 220 0
219 -537 0
219 -220 0
-220 -538 50 0
-220 538 221 0
220 538 -221 0
220 -538 -50 0
-221 -539 164 0
-221 539 216 0
221 539 -216 0
221 -539 -164 0
-222 536 14 0
-222 14 223 0
222 -14 0
222 -536 -223 0
-223 537 224 0
223 -537 0
223 -224 0
-224 -538 56 0
-224 538 225 0
224 538 -225 0
224 -538 -56 0
-225 -539 170 0
-225 539 196 0
225 539 -196 0
225 -539 -170 0
-226 506 227 0
-226 -506 237 0
226 -506 -237 0
226 506 -227 0
-227 507 228 0
-227 -507 231 0
227 -507 -231 0
227 507 -228 0
-228 508 229 0
-228 -508 230 0
228 -508 -230 0
228 508 -229 0
-229 536 14 0
-229 14 60 0
229 -14 0
229 -536 -60 0
-230 536 14 0
-230 14 27 0
230 -14 0
230 -536 -27 0
-231 508 13 0
-231 -508 232 0
231 -508 -232 0
231 508 -13 0
-232 13 233 0
232 -13 0
232 -233 0
-233 -537 224 0
-233 537 234 0
233 537 -234 0
233 -537 -224 0
-234 538 235 0
-234 -538 236 0
234 -538 -236 0
234 538 -235 0
-235 539 188 0
-235 -539 190 0
235 -539 -190 0
235 539 -188 0
-236 539 191 0
-236 -539 195 0
236 -539 -195 0
236 539 -191 0
-237 507 238 0
-237 -507 244 0
237 -507 -244 0
237 507 -238 0
-238 508 239 0
-238 -508 13 242 0
238 -508 -242 0
238 508 -239 0
238 -508 -13 0
-239 13 240 0
239 -13 0
239 -240 0
-240 -537 162 0
-240 537 241 0
240 537 -241 0
240 -537 -162 0
-241 538 209 0
-241 -538 214 0
241 -538 -214 0
241 538 -209 0
-242 -537 167 0
-242 537 243 0
242 537 -243 0
242 -537 -167 0
-243 538 189 0
-243 -538 194 0
243 -538 -194 0
243 538 -189 0
-244 -508 13 248 0
-244 508 13 245 0
244 -13 0
244 -508 -248 0
244 508 -245 0
-245 -537 49 0
-245 537 246 0
245 537 -246 0
245 -537 -49 0
-246 -538 221 0
-246 538 247 0
246 538 -247 0
246 -538 -221 0
-247 539 211 0
-247 -539 215 0
247 -539 -215 0
247 539 -211 0
-248 -537 55 0
-248 537 249 0
248 537 -249 0
248 -537 -55 0
-249 -538 225 0
-249 538 236 0
249 538 -236 0
249 -538 -225 0
250 -505 251 278 0
-250 505 0
-250 -251 0
-250 -278 0
-251 506 252 0
-251 -506 270 0
251 -506 -270 0
251 506 -252 0
-252 -507 253 0
-252 507 256 268 0
252 -507 -253 0
252 507 -268 0
252 507 -256 0
-253 95 254 0
-253 -228 254 0
253 -254 0
253 -95 228 0
254 508 -255 0
254 -508 13 -127 0
-254 -508 127 0
-254 508 255 0
-254 -508 -13 0
255 -111 230 0
-255 111 0
-255 -230 0
256 171 -257 0
-256 -171 0
-256 257 0
-257 508 258 0
-257 -508 263 0
257 -508 -263 0
257 508 -258 0
-258 536 14 259 0
-258 -536 14 66 0
258 -14 0
258 -536 -66 0
258 536 -259 0
-259 -537 153 0
-259 537 260 0
259 537 -260 0
259 -537 -153 0
-260 -538 130 0
-260 538 261 0
260 538 -261 0
260 -538 -130 0
-261 -539 100 0
-261 539 262 0
261 539 -262 0
261 -539 -100 0
-262 496 540 0
-262 495 -540 0
262 -496 540 0
262 -495 -540 0
-263 536 14 264 0
-263 -536 14 72 0
263 -14 0
263 -536 -72 0
263 536 -264 0
-264 -537 155 0
-264 537 265 0
264 537 -265 0
264 -537 -155 0
-265 -538 137 0
-265 538 266 0
265 538 -266 0
265 -538 -137 0
-266 -539 115 0
-266 539 267 0
266 539 -267 0
266 -539 -115 0
-267 495 540 0
-267 494 -540 0
267 -495 540 0
267 -494 -540 0
-268 -508 269 0
-268 508 -173 0
-268 508 263 0
268 -508 -269 0
268 508 173 -263 0
269 -96 229 0
-269 96 0
-269 -229 0
-270 -507 271 0
-270 507 275 277 0
270 507 -277 0
270 -507 -271 0
270 507 -275 0
-271 142 272 0
-271 -238 272 0
271 -272 0
271 -142 238 0
272 -508 13 -274 0
272 508 13 -273 0
-272 -13 0
-272 -508 274 0
-272 508 273 0
273 -147 242 0
273 147 -242 0
-273 147 242 0
-273 -147 -242 0
274 -152 245 0
274 152 -245 0
-274 152 245 0
-274 -152 -245 0
275 -508 -276 0
275 508 -134 232 0
-275 508 134 0
-275 -508 276 0
-275 508 -232 0
276 -143 239 0
-276 143 0
-276 -239 0
277 -126 231 0
-277 126 0
-277 -231 0
-278 507 254 279 0
-278 -507 275 279 0
278 -279 0
278 507 -254 0
278 -507 -275 0
279 506 -321 0
279 -506 -280 0
279 506 -288 0
-279 -506 280 0
-279 506 288 321 0
-280 94 252 281 0
-280 -227 252 281 0
280 -252 0
280 -281 0
280 -94 227 0
281 507 -272 0
281 -507 -282 0
-281 -507 282 0
-281 507 272 0
282 -508 -283 0
282 508 13 -287 0
-282 -508 283 0
-282 508 -13 0
-282 508 287 0
283 -284 286 0
-283 284 0
-283 -286 0
-284 13 285 0
284 -13 0
284 -285 0
-285 -537 79 0
-285 537 105 0
285 537 -105 0
285 -537 -79 0
-286 13 212 0
286 -13 0
286 -212 0
287 -154 248 0
287 154 -248 0
-287 154 248 0
-287 -154 -248 0
-288 -507 289 319 0
-288 507 303 319 0
288 -319 0
288 -507 -289 0
288 507 -303 0
-289 -159 268 0
-289 268 290 0
289 -268 0
289 159 -290 0
-290 508 291 0
-290 -508 297 0
290 -508 -297 0
290 508 -291 0
-291 -536 14 296 0
-291 536 14 292 0
291 -14 0
291 -536 -296 0
291 536 -292 0
-292 -537 145 0
-292 537 293 0
292 537 -293 0
292 -537 -145 0
-293 -538 99 0
-293 538 294 0
293 538 -294 0
293 -538 -99 0
-294 -539 262 0
-294 539 295 0
294 539 -295 0
294 -539 -262 0
-295 498 540 0
-295 497 -540 0
295 -498 540 0
295 -497 -540 0
-296 537 146 0
296 -537 0
296 -146 0
-297 -536 14 302 0
-297 536 14 298 0
297 -14 0
297 -536 -302 0
297 536 -298 0
-298 -537 148 0
-298 537 299 0
298 537 -299 0
298 -537 -148 0
-299 -538 114 0
-299 538 300 0
299 538 -300 0
299 -538 -114 0
-300 -539 267 0
-300 539 301 0
300 539 -301 0
300 -539 -267 0
-301 497 540 0
-301 496 -540 0
301 -497 540 0
301 -496 -540 0
-302 537 149 0
302 -537 0
302 -149 0
-303 -508 304 312 0
-303 508 305 312 0
303 -312 0
303 508 -305 0
303 -508 -304 0
304 160 -291 0
-304 -160 0
-304 291 0
305 222 -306 0
-305 -222 0
-305 306 0
-306 -536 14 311 0
-306 536 14 307 0
306 -14 0
306 -536 -311 0
306 536 -307 0
-307 -537 136 0
-307 537 308 0
307 537 -308 0
307 -537 -136 0
-308 -538 266 0
-308 538 309 0
308 538 -309 0
308 -538 -266 0
-309 -539 301 0
-309 539 310 0
309 539 -310 0
309 -539 -301 0
-310 499 540 0
-310 498 -540 0
310 -499 540 0
310 -498 -540 0
-311 537 139 0
311 -537 0
311 -139 0
312 508 217 -313 0
312 -508 217 -306 0
-312 -217 0
-312 508 313 0
-312 -508 306 0
-313 -536 14 318 0
-313 536 14 314 0
313 -14 0
313 -536 -318 0
313 536 -314 0
-314 -537 129 0
-314 537 315 0
314 537 -315 0
314 -537 -129 0
-315 -538 261 0
-315 538 316 0
315 538 -316 0
315 -538 -261 0
-316 -539 295 0
-316 539 317 0
316 539 -317 0
316 -539 -295 0
-317 500 540 0
-317 499 -540 0
317 -500 540 0
317 -499 -540 0
-318 537 132 0
318 -537 0
318 -132 0
319 -508 -320 0
319 508 165 -297 0
-319 -508 320 0
-319 508 -165 0
-319 508 297 0
320 172 -258 0
-320 -172 0
-320 258 0
321 158 -322 0
-321 -158 0
-321 322 0
-322 -507 257 0
-322 507 290 0
322 507 -290 0
322 -507 -257 0
-323 506 325 403 0
-323 324 325 403 0
323 -403 0
323 -325 0
323 -506 -324 0
-324 156 288 322 0
-324 -156 288 -322 0
324 -288 0
324 -156 322 0
324 156 -322 0
325 14 -387 0
325 506 14 -326 0
-325 -14 0
-325 -506 387 0
-325 326 387 0
-326 -508 359 373 0
-326 327 359 373 0
326 -359 0
326 -373 0
326 508 -327 0
-327 -507 328 0
-327 328 -343 -353 0
-327 328 343 353 0
327 -328 0
327 507 343 -353 0
327 507 -343 353 0
-328 329 337 0
-328 -329 -337 0
328 -329 337 0
328 329 -337 0
-329 -536 144 0
-329 536 330 0
329 536 -330 0
329 -536 -144 0
-330 -537 293 0
-330 537 331 0
330 537 -331 0
330 -537 -293 0
-331 538 332 0
-331 -538 335 0
331 -538 -335 0
331 538 -332 0
-332 539 333 0
-332 -539 334 0
332 -539 -334 0
332 539 -333 0
-333 506 540 0
-333 505 -540 0
333 -506 540 0
333 -505 -540 0
-334 504 540 0
-334 503 -540 0
334 -504 540 0
334 -503 -540 0
-335 -539 317 0
-335 539 336 0
335 539 -336 0
335 -539 -317 0
-336 502 540 0
-336 501 -540 0
336 -502 540 0
336 -501 -540 0
-337 -536 240 0
-337 536 338 342 0
337 536 -342 0
337 -536 -240 0
337 536 -338 0
338 537 -538 -199 0
338 537 538 -339 0
-338 -537 0
-338 -538 199 0
-338 538 339 0
-339 539 340 0
-339 -539 341 0
339 -539 -341 0
339 539 -340 0
-340 538 540 0
-340 537 -540 0
340 -538 540 0
340 -537 -540 0
-341 536 540 0
-341 535 -540 0
341 -536 540 0
341 -535 -540 0
342 -537 -538 -206 0
342 -537 538 -202 0
-342 537 0
-342 -538 206 0
-342 538 202 0
343 536 -344 0
343 -536 -350 0
-343 -536 350 0
-343 536 344 0
344 -537 -347 0
344 537 -345 0
-344 537 345 0
-344 -537 347 0
-345 -538 346 0
-345 538 539 0
-345 538 340 0
345 -538 -346 0
345 538 -539 -340 0
-346 -539 200 0
-346 539 341 0
346 539 -341 0
346 -539 -200 0
-347 538 348 0
-347 -538 349 0
347 -538 -349 0
347 538 -348 0
-348 539 201 0
-348 -539 203 0
348 -539 -203 0
348 539 -201 0
-349 539 204 0
-349 -539 207 0
349 -539 -207 0
349 539 -204 0
-350 -537 220 0
-350 537 351 0
350 537 -351 0
350 -537 -220 0
-351 -538 247 0
-351 538 352 0
351 538 -352 0
351 -538 -247 0
-352 539 208 0
-352 -539 210 0
352 -539 -210 0
352 539 -208 0
353 -536 -128 0
353 536 -354 0
-353 -536 128 0
-353 536 354 0
354 -537 -315 0
354 537 -355 0
-354 -537 315 0
-354 537 355 0
355 -538 -356 0
355 538 357 -358 0
-355 -538 356 0
-355 538 358 0
-355 538 -357 0
-356 539 334 0
-356 -539 336 0
356 -539 -336 0
356 539 -334 0
357 507 539 -540 0
-357 540 0
-357 -539 0
-357 -507 0
358 -508 539 0
358 -539 -333 0
358 539 -540 0
-358 -539 333 0
-358 508 539 540 0
-359 -536 273 0
-359 536 -360 -367 0
-359 536 360 367 0
359 -536 -273 0
359 536 -360 367 0
359 536 360 -367 0
-360 -537 299 0
-360 537 361 0
360 537 -361 0
360 -537 -299 0
-361 538 362 0
-361 -538 365 0
361 -538 -365 0
361 538 -362 0
-362 539 363 0
-362 -539 364 0
362 -539 -364 0
362 539 -363 0
-363 505 540 0
-363 504 -540 0
363 -505 540 0
363 -504 -540 0
-364 503 540 0
-364 502 -540 0
364 -503 540 0
364 -502 -540 0
-365 -539 310 0
-365 539 366 0
365 539 -366 0
365 -539 -310 0
-366 501 540 0
-366 500 -540 0
366 -501 540 0
366 -500 -540 0
-367 537 368 0
-367 -537 372 0
367 -537 -372 0
367 537 -368 0
-368 -538 182 0
-368 538 369 0
368 538 -369 0
368 -538 -182 0
-369 539 370 0
-369 -539 371 0
369 -539 -371 0
369 539 -370 0
-370 537 540 0
-370 536 -540 0
370 -537 540 0
370 -536 -540 0
-371 535 540 0
-371 534 -540 0
371 -535 540 0
371 -534 -540 0
-372 538 179 0
-372 -538 186 0
372 -538 -186 0
372 538 -179 0
373 507 -328 0
373 507 -374 381 0
373 507 374 -381 0
-373 -507 0
-373 328 -374 -381 0
-373 328 374 381 0
-374 -536 233 0
-374 536 375 0
374 536 -375 0
374 -536 -233 0
-375 537 376 0
-375 -537 378 0
375 -537 -378 0
375 537 -376 0
-376 -538 377 0
-376 538 539 0
-376 538 370 0
376 -538 -377 0
376 538 -539 -370 0
-377 -539 183 0
-377 539 371 0
377 539 -371 0
377 -539 -183 0
-378 538 379 0
-378 -538 380 0
378 -538 -380 0
378 538 -379 0
-379 -539 180 0
-379 539 184 0
379 539 -184 0
379 -539 -180 0
-380 539 181 0
-380 -539 187 0
380 -539 -187 0
380 539 -181 0
381 -536 -135 0
381 536 -382 0
-381 -536 135 0
-381 536 382 0
382 -537 -308 0
382 537 -383 0
-382 -537 308 0
-382 537 383 0
383 -538 -384 0
383 538 -385 386 0
-383 -538 384 0
-383 538 -386 0
-383 538 385 0
-384 539 364 0
-384 -539 366 0
384 -539 -366 0
384 539 -364 0
-385 507 539 540 0
385 -507 0
385 -540 0
385 -539 0
-386 539 540 0
-386 -539 -363 0
-386 -506 539 0
386 -539 363 0
386 506 539 -540 0
-387 388 397 0
-387 -506 -507 397 0
387 -397 0
387 506 -388 0
387 507 -388 0
-388 508 392 0
-388 197 389 392 0
-388 -197 -389 392 0
388 -392 0
388 -508 -197 389 0
388 -508 197 -389 0
-389 -536 285 0
-389 536 390 0
389 536 -390 0
389 -536 -285 0
-390 -537 98 0
-390 537 391 0
390 537 -391 0
390 -537 -98 0
-391 -538 294 0
-391 538 335 0
391 538 -335 0
391 -538 -294 0
392 -536 -287 0
392 536 -393 0
-392 536 393 0
-392 -536 287 0
393 537 -395 0
393 -537 -265 394 0
393 -537 265 -394 0
-393 537 395 0
-393 -537 265 394 0
-393 -537 -265 -394 0
-394 -538 235 0
-394 538 380 0
394 538 -380 0
394 -538 -235 0
395 538 -396 0
395 -538 -309 379 0
395 -538 309 -379 0
-395 538 396 0
-395 -538 309 379 0
-395 -538 -309 -379 0
396 -377 384 0
396 377 -384 0
-396 377 384 0
-396 -377 -384 0
397 506 -398 0
397 507 508 -398 0
-397 398 0
-397 -506 -508 0
-397 -506 -507 0
398 -536 -274 0
398 536 -399 0
-398 536 399 0
-398 -536 274 0
399 537 -401 0
399 -537 -260 400 0
399 -537 260 -400 0
-399 537 401 0
-399 -537 260 400 0
-399 -537 -260 -400 0
-400 538 349 0
-400 -538 352 0
400 -538 -352 0
400 538 -349 0
401 538 -402 0
401 -538 -316 348 0
401 -538 316 -348 0
-401 538 402 0
-401 -538 316 348 0
-401 -538 -316 -348 0
402 -346 356 0
402 346 -356 0
-402 346 356 0
-402 -346 -356 0
-403 -175 404 411 0
-403 404 411 413 0
403 -404 0
403 -411 0
403 175 -413 0
-404 505 507 405 0
-404 505 312 405 0
404 -505 0
404 -405 0
404 -507 -312 0
405 508 -406 0
405 -507 508 -305 0
-405 -508 0
-405 305 406 0
-405 507 406 0
406 176 -407 0
-406 -176 0
-406 407 0
-407 -536 14 410 0
-407 536 14 408 0
407 -14 0
407 -536 -410 0
407 536 -408 0
408 -537 -113 0
408 537 -409 0
-408 -537 113 0
-408 537 409 0
409 538 -365 0
409 -538 -300 0
-409 -538 300 0
-409 538 365 0
-410 -537 12 0
-410 537 120 0
410 537 -120 0
410 -537 -12 0
411 -508 -412 0
411 -507 -508 -304 0
-411 508 0
-411 304 412 0
-411 507 412 0
412 218 -313 0
-412 -218 0
-412 313 0
413 -508 -407 0
413 508 -389 0
413 508 -14 0
-413 -508 407 0
-413 508 14 389 0
414 -505 -416 0
414 505 -415 0
414 -505 -450 0
-414 505 415 0
-414 -505 416 450 0
-415 93 251 278 0
-415 -226 251 278 0
415 -278 0
415 -251 0
415 -93 226 0
-416 -506 417 440 0
-416 506 439 440 0
416 -440 0
416 -506 -417 0
416 506 -439 0
-417 418 433 0
-417 418 -436 0
417 -418 0
417 -433 436 0
-418 -508 419 429 0
-418 508 423 429 0
418 -429 0
418 -508 -419 0
418 508 -423 0
-419 -507 -47 0
-419 65 420 0
-419 -47 420 0
-419 -507 65 0
419 47 -65 0
419 507 -420 0
420 -421 422 0
-420 421 0
-420 -422 0
-421 13 296 0
421 -13 0
421 -296 0
-422 13 161 0
422 -13 0
422 -161 0
-423 -507 -425 0
-423 424 426 0
-423 -507 424 0
-423 -425 426 0
423 507 -426 0
423 -424 425 0
-424 13 302 0
424 -13 0
424 -302 0
-425 13 166 0
425 -13 0
425 -166 0
426 -427 428 0
-426 427 0
-426 -428 0
-427 13 311 0
427 -13 0
427 -311 0
-428 13 223 0
428 -13 0
428 -223 0
-429 -507 430 0
-429 507 -432 0
-429 507 431 0
429 -507 -430 0
429 507 -431 432 0
-430 64 -88 0
-430 -46 83 0
-430 64 83 0
-430 -46 -88 0
430 -83 88 0
430 46 -64 0
-431 508 421 0
-431 -508 424 0
431 -508 -424 0
431 508 -421 0
-432 508 422 0
-432 -508 425 0
432 -508 -425 0
432 508 -422 0
-433 507 151 0
-433 -507 434 0
433 -507 -434 0
433 507 -151 0
-434 508 284 0
-434 -508 435 0
434 -508 -435 0
434 508 -284 0
-435 13 410 0
435 -13 0
435 -410 0
-436 507 244 0
-436 -507 437 0
436 -507 -437 0
436 507 -244 0
-437 508 286 0
-437 -508 438 0
437 -508 -438 0
437 508 -286 0
-438 13 192 0
438 -13 0
438 -192 0
-439 141 270 281 0
-439 -237 270 281 0
439 -270 0
439 -281 0
439 -141 237 0
-440 507 447 449 0
-440 -507 441 447 0
440 -447 0
440 -507 -441 0
440 507 -449 0
-441 -508 420 442 0
-441 508 426 442 0
441 -442 0
441 508 -426 0
441 -508 -420 0
442 -443 445 0
-442 443 0
-442 -445 0
-443 -508 427 0
-443 508 444 0
443 508 -444 0
443 -508 -427 0
-444 13 318 0
444 -13 0
444 -318 0
-445 -508 428 0
-445 508 446 0
445 508 -446 0
445 -508 -428 0
-446 13 219 0
446 -13 0
446 -219 0
-447 508 435 0
-447 -508 448 0
-447 508 -438 0
447 -508 -448 0
447 508 -435 438 0
448 -444 446 0
-448 444 0
-448 -446 0
-449 282 434 0
-449 282 -437 0
449 -282 0
449 -434 437 0
450 -451 453 0
-450 451 0
-450 -453 0
-451 506 433 0
-451 -506 452 0
451 -506 -452 0
451 506 -433 0
-452 -507 431 0
-452 507 443 0
452 507 -443 0
452 -507 -431 0
-453 506 436 0
-453 -506 454 0
453 -506 -454 0
453 506 -436 0
-454 -507 432 0
-454 507 445 0
454 507 -445 0
454 -507 -432 0
-455 450 456 462 0
-455 -505 456 462 0
455 -462 0
455 -456 0
455 505 -450 0
456 505 506 -457 0
-456 -505 0
-456 457 0
-456 -506 0
-457 44 458 0
457 -44 0
457 -458 0
-458 8 82 459 0
-458 8 -87 459 0
458 -8 0
458 -459 0
458 -82 87 0
459 460 -461 0
-459 -460 0
-459 461 0
-460 507 58 0
460 -507 0
460 -58 0
-461 507 76 0
461 -507 0
461 -76 0
-462 463 468 0
-462 463 467 0
462 -463 0
462 -467 -468 0
-463 505 464 0
-463 -506 464 0
-463 458 464 0
463 -464 0
463 -505 506 -458 0
-464 506 465 466 0
-464 -506 457 465 0
464 -465 0
464 -506 -457 0
464 506 -466 0
465 505 -416 0
-465 -505 0
-465 416 0
-466 418 452 0
-466 418 -454 0
466 -418 0
466 -452 454 0
467 -505 506 45 0
-467 505 0
-467 -506 0
-467 -45 0
-468 506 63 0
468 -506 0
468 -63 0
-469 -470 0
-469 -471 474 0
-469 472 474 0
469 470 -474 0
469 470 471 -472 0
-470 31 86 0
470 -31 0
470 -86 0
-471 505 506 460 0
471 -460 0
471 -506 0
471 -505 0
-472 506 39 42 473 0
472 -506 0
472 -473 0
472 -42 0
472 -39 0
-473 30 40 461 0
473 -30 0
473 -40 0
473 -461 0
-474 463 475 0
-474 463 467 -476 0
474 -463 0
474 -467 -475 0
474 -475 476 0
475 -505 -468 0
475 505 -451 0
-475 505 451 0
-475 -505 468 0
-476 505 453 0
476 -505 0
476 -453 0
-541 0
2 0

